NAME CFLP
ROWS
 N  OBJ
 E  demand_1
 E  demand_2
 E  demand_3
 E  demand_4
 E  demand_5
 E  demand_6
 E  demand_7
 E  demand_8
 E  demand_9
 E  demand_10
 E  demand_11
 E  demand_12
 E  demand_13
 E  demand_14
 E  demand_15
 E  demand_16
 E  demand_17
 E  demand_18
 E  demand_19
 E  demand_20
 E  demand_21
 E  demand_22
 E  demand_23
 E  demand_24
 E  demand_25
 E  demand_26
 E  demand_27
 E  demand_28
 E  demand_29
 E  demand_30
 E  demand_31
 E  demand_32
 E  demand_33
 E  demand_34
 E  demand_35
 L  c_disjunction_1_diajunct_1
 L  c_disjunction_1_disjunct_2
 E  R37     
 L  c_disjunction_2_diajunct_1
 L  c_disjunction_2_disjunct_2
 E  R40     
 L  c_disjunction_3_diajunct_1
 L  c_disjunction_3_disjunct_2
 E  R43     
 L  c_disjunction_4_diajunct_1
 L  c_disjunction_4_disjunct_2
 E  R46     
 L  c_disjunction_5_diajunct_1
 L  c_disjunction_5_disjunct_2
 E  R49     
 L  c_disjunction_6_diajunct_1
 L  c_disjunction_6_disjunct_2
 E  R52     
 L  c_disjunction_7_diajunct_1
 L  c_disjunction_7_disjunct_2
 E  R55     
 L  c_disjunction_8_diajunct_1
 L  c_disjunction_8_disjunct_2
 E  R58     
 L  c_disjunction_9_diajunct_1
 L  c_disjunction_9_disjunct_2
 E  R61     
 L  c_disjunction_10_diajunct_1
 L  c_disjunction_10_disjunct_2
 E  R64     
 L  c_disjunction_11_diajunct_1
 L  c_disjunction_11_disjunct_2
 E  R67     
 L  c_disjunction_12_diajunct_1
 L  c_disjunction_12_disjunct_2
 E  R70     
 L  c_disjunction_13_diajunct_1
 L  c_disjunction_13_disjunct_2
 E  R73     
 L  c_disjunction_14_diajunct_1
 L  c_disjunction_14_disjunct_2
 E  R76     
 L  c_disjunction_15_diajunct_1
 L  c_disjunction_15_disjunct_2
 E  R79     
 L  c_disjunction_16_diajunct_1
 L  c_disjunction_16_disjunct_2
 E  R82     
 L  c_disjunction_17_diajunct_1
 L  c_disjunction_17_disjunct_2
 E  R85     
 L  c_disjunction_18_diajunct_1
 L  c_disjunction_18_disjunct_2
 E  R88     
 L  c_disjunction_19_diajunct_1
 L  c_disjunction_19_disjunct_2
 E  R91     
 L  c_disjunction_20_diajunct_1
 L  c_disjunction_20_disjunct_2
 E  R94     
 L  c_disjunction_21_diajunct_1
 L  c_disjunction_21_disjunct_2
 E  R97     
 L  c_disjunction_22_diajunct_1
 L  c_disjunction_22_disjunct_2
 E  R100    
 L  c_disjunction_23_diajunct_1
 L  c_disjunction_23_disjunct_2
 E  R103    
 L  c_disjunction_24_diajunct_1
 L  c_disjunction_24_disjunct_2
 E  R106    
 L  c_disjunction_25_diajunct_1
 L  c_disjunction_25_disjunct_2
 E  R109    
 L  c_disjunction_26_diajunct_1
 L  c_disjunction_26_disjunct_2
 E  R112    
 L  c_disjunction_27_diajunct_1
 L  c_disjunction_27_disjunct_2
 E  R115    
 L  c_disjunction_28_diajunct_1
 L  c_disjunction_28_disjunct_2
 E  R118    
 L  c_disjunction_29_diajunct_1
 L  c_disjunction_29_disjunct_2
 E  R121    
 L  c_disjunction_30_diajunct_1
 L  c_disjunction_30_disjunct_2
 E  R124    
 L  c_disjunction_31_diajunct_1
 L  c_disjunction_31_disjunct_2
 E  R127    
 L  c_disjunction_32_diajunct_1
 L  c_disjunction_32_disjunct_2
 E  R130    
 L  c_disjunction_33_diajunct_1
 L  c_disjunction_33_disjunct_2
 E  R133    
 L  c_disjunction_34_diajunct_1
 L  c_disjunction_34_disjunct_2
 E  R136    
 L  c_disjunction_35_diajunct_1
 L  c_disjunction_35_disjunct_2
 E  R139    
COLUMNS
    MARKER    'MARKER'                 'INTORG'
    ind_disjunction_1_disjunct_1  OBJ       1240
    ind_disjunction_1_disjunct_1  c_disjunction_1_diajunct_1  -126
    ind_disjunction_1_disjunct_1  R37       1
    ind_disjunction_2_disjunct_1  OBJ       1240
    ind_disjunction_2_disjunct_1  c_disjunction_2_diajunct_1  -126
    ind_disjunction_2_disjunct_1  R40       1
    ind_disjunction_3_disjunct_1  OBJ       1240
    ind_disjunction_3_disjunct_1  c_disjunction_3_diajunct_1  -126
    ind_disjunction_3_disjunct_1  R43       1
    ind_disjunction_4_disjunct_1  OBJ       1240
    ind_disjunction_4_disjunct_1  c_disjunction_4_diajunct_1  -126
    ind_disjunction_4_disjunct_1  R46       1
    ind_disjunction_5_disjunct_1  OBJ       1240
    ind_disjunction_5_disjunct_1  c_disjunction_5_diajunct_1  -126
    ind_disjunction_5_disjunct_1  R49       1
    ind_disjunction_6_disjunct_1  OBJ       1240
    ind_disjunction_6_disjunct_1  c_disjunction_6_diajunct_1  -126
    ind_disjunction_6_disjunct_1  R52       1
    ind_disjunction_7_disjunct_1  OBJ       1240
    ind_disjunction_7_disjunct_1  c_disjunction_7_diajunct_1  -126
    ind_disjunction_7_disjunct_1  R55       1
    ind_disjunction_8_disjunct_1  OBJ       1240
    ind_disjunction_8_disjunct_1  c_disjunction_8_diajunct_1  -126
    ind_disjunction_8_disjunct_1  R58       1
    ind_disjunction_9_disjunct_1  OBJ       1240
    ind_disjunction_9_disjunct_1  c_disjunction_9_diajunct_1  -126
    ind_disjunction_9_disjunct_1  R61       1
    ind_disjunction_10_disjunct_1  OBJ       1240
    ind_disjunction_10_disjunct_1  c_disjunction_10_diajunct_1  -126
    ind_disjunction_10_disjunct_1  R64       1
    ind_disjunction_11_disjunct_1  OBJ       1240
    ind_disjunction_11_disjunct_1  c_disjunction_11_diajunct_1  -126
    ind_disjunction_11_disjunct_1  R67       1
    ind_disjunction_12_disjunct_1  OBJ       1240
    ind_disjunction_12_disjunct_1  c_disjunction_12_diajunct_1  -126
    ind_disjunction_12_disjunct_1  R70       1
    ind_disjunction_13_disjunct_1  OBJ       1240
    ind_disjunction_13_disjunct_1  c_disjunction_13_diajunct_1  -126
    ind_disjunction_13_disjunct_1  R73       1
    ind_disjunction_14_disjunct_1  OBJ       1240
    ind_disjunction_14_disjunct_1  c_disjunction_14_diajunct_1  -126
    ind_disjunction_14_disjunct_1  R76       1
    ind_disjunction_15_disjunct_1  OBJ       1240
    ind_disjunction_15_disjunct_1  c_disjunction_15_diajunct_1  -126
    ind_disjunction_15_disjunct_1  R79       1
    ind_disjunction_16_disjunct_1  OBJ       1240
    ind_disjunction_16_disjunct_1  c_disjunction_16_diajunct_1  -126
    ind_disjunction_16_disjunct_1  R82       1
    ind_disjunction_17_disjunct_1  OBJ       1240
    ind_disjunction_17_disjunct_1  c_disjunction_17_diajunct_1  -126
    ind_disjunction_17_disjunct_1  R85       1
    ind_disjunction_18_disjunct_1  OBJ       1240
    ind_disjunction_18_disjunct_1  c_disjunction_18_diajunct_1  -126
    ind_disjunction_18_disjunct_1  R88       1
    ind_disjunction_19_disjunct_1  OBJ       1240
    ind_disjunction_19_disjunct_1  c_disjunction_19_diajunct_1  -126
    ind_disjunction_19_disjunct_1  R91       1
    ind_disjunction_20_disjunct_1  OBJ       1240
    ind_disjunction_20_disjunct_1  c_disjunction_20_diajunct_1  -126
    ind_disjunction_20_disjunct_1  R94       1
    ind_disjunction_21_disjunct_1  OBJ       1240
    ind_disjunction_21_disjunct_1  c_disjunction_21_diajunct_1  -126
    ind_disjunction_21_disjunct_1  R97       1
    ind_disjunction_22_disjunct_1  OBJ       1240
    ind_disjunction_22_disjunct_1  c_disjunction_22_diajunct_1  -126
    ind_disjunction_22_disjunct_1  R100      1
    ind_disjunction_23_disjunct_1  OBJ       1240
    ind_disjunction_23_disjunct_1  c_disjunction_23_diajunct_1  -126
    ind_disjunction_23_disjunct_1  R103      1
    ind_disjunction_24_disjunct_1  OBJ       1240
    ind_disjunction_24_disjunct_1  c_disjunction_24_diajunct_1  -126
    ind_disjunction_24_disjunct_1  R106      1
    ind_disjunction_25_disjunct_1  OBJ       1240
    ind_disjunction_25_disjunct_1  c_disjunction_25_diajunct_1  -126
    ind_disjunction_25_disjunct_1  R109      1
    ind_disjunction_26_disjunct_1  OBJ       1240
    ind_disjunction_26_disjunct_1  c_disjunction_26_diajunct_1  -126
    ind_disjunction_26_disjunct_1  R112      1
    ind_disjunction_27_disjunct_1  OBJ       1240
    ind_disjunction_27_disjunct_1  c_disjunction_27_diajunct_1  -126
    ind_disjunction_27_disjunct_1  R115      1
    ind_disjunction_28_disjunct_1  OBJ       1240
    ind_disjunction_28_disjunct_1  c_disjunction_28_diajunct_1  -126
    ind_disjunction_28_disjunct_1  R118      1
    ind_disjunction_29_disjunct_1  OBJ       1240
    ind_disjunction_29_disjunct_1  c_disjunction_29_diajunct_1  -126
    ind_disjunction_29_disjunct_1  R121      1
    ind_disjunction_30_disjunct_1  OBJ       1240
    ind_disjunction_30_disjunct_1  c_disjunction_30_diajunct_1  -126
    ind_disjunction_30_disjunct_1  R124      1
    ind_disjunction_31_disjunct_1  OBJ       1240
    ind_disjunction_31_disjunct_1  c_disjunction_31_diajunct_1  -126
    ind_disjunction_31_disjunct_1  R127      1
    ind_disjunction_32_disjunct_1  OBJ       1240
    ind_disjunction_32_disjunct_1  c_disjunction_32_diajunct_1  -126
    ind_disjunction_32_disjunct_1  R130      1
    ind_disjunction_33_disjunct_1  OBJ       1240
    ind_disjunction_33_disjunct_1  c_disjunction_33_diajunct_1  -126
    ind_disjunction_33_disjunct_1  R133      1
    ind_disjunction_34_disjunct_1  OBJ       1240
    ind_disjunction_34_disjunct_1  c_disjunction_34_diajunct_1  -126
    ind_disjunction_34_disjunct_1  R136      1
    ind_disjunction_35_disjunct_1  OBJ       1240
    ind_disjunction_35_disjunct_1  c_disjunction_35_diajunct_1  -126
    ind_disjunction_35_disjunct_1  R139      1
    ind_disjunction_1_disjunct_2  c_disjunction_1_disjunct_2  2
    ind_disjunction_1_disjunct_2  R37       1
    ind_disjunction_2_disjunct_2  c_disjunction_2_disjunct_2  3
    ind_disjunction_2_disjunct_2  R40       1
    ind_disjunction_3_disjunct_2  c_disjunction_3_disjunct_2  2
    ind_disjunction_3_disjunct_2  R43       1
    ind_disjunction_4_disjunct_2  c_disjunction_4_disjunct_2  1
    ind_disjunction_4_disjunct_2  R46       1
    ind_disjunction_5_disjunct_2  c_disjunction_5_disjunct_2  4
    ind_disjunction_5_disjunct_2  R49       1
    ind_disjunction_6_disjunct_2  c_disjunction_6_disjunct_2  2
    ind_disjunction_6_disjunct_2  R52       1
    ind_disjunction_7_disjunct_2  c_disjunction_7_disjunct_2  1
    ind_disjunction_7_disjunct_2  R55       1
    ind_disjunction_8_disjunct_2  c_disjunction_8_disjunct_2  3
    ind_disjunction_8_disjunct_2  R58       1
    ind_disjunction_9_disjunct_2  c_disjunction_9_disjunct_2  2
    ind_disjunction_9_disjunct_2  R61       1
    ind_disjunction_10_disjunct_2  c_disjunction_10_disjunct_2  3
    ind_disjunction_10_disjunct_2  R64       1
    ind_disjunction_11_disjunct_2  c_disjunction_11_disjunct_2  5
    ind_disjunction_11_disjunct_2  R67       1
    ind_disjunction_12_disjunct_2  c_disjunction_12_disjunct_2  5
    ind_disjunction_12_disjunct_2  R70       1
    ind_disjunction_13_disjunct_2  c_disjunction_13_disjunct_2  4
    ind_disjunction_13_disjunct_2  R73       1
    ind_disjunction_14_disjunct_2  c_disjunction_14_disjunct_2  4
    ind_disjunction_14_disjunct_2  R76       1
    ind_disjunction_15_disjunct_2  c_disjunction_15_disjunct_2  4
    ind_disjunction_15_disjunct_2  R79       1
    ind_disjunction_16_disjunct_2  c_disjunction_16_disjunct_2  3
    ind_disjunction_16_disjunct_2  R82       1
    ind_disjunction_17_disjunct_2  c_disjunction_17_disjunct_2  4
    ind_disjunction_17_disjunct_2  R85       1
    ind_disjunction_18_disjunct_2  c_disjunction_18_disjunct_2  3
    ind_disjunction_18_disjunct_2  R88       1
    ind_disjunction_19_disjunct_2  c_disjunction_19_disjunct_2  4
    ind_disjunction_19_disjunct_2  R91       1
    ind_disjunction_20_disjunct_2  c_disjunction_20_disjunct_2  3
    ind_disjunction_20_disjunct_2  R94       1
    ind_disjunction_21_disjunct_2  c_disjunction_21_disjunct_2  2
    ind_disjunction_21_disjunct_2  R97       1
    ind_disjunction_22_disjunct_2  c_disjunction_22_disjunct_2  3
    ind_disjunction_22_disjunct_2  R100      1
    ind_disjunction_23_disjunct_2  c_disjunction_23_disjunct_2  3
    ind_disjunction_23_disjunct_2  R103      1
    ind_disjunction_24_disjunct_2  c_disjunction_24_disjunct_2  3
    ind_disjunction_24_disjunct_2  R106      1
    ind_disjunction_25_disjunct_2  c_disjunction_25_disjunct_2  3
    ind_disjunction_25_disjunct_2  R109      1
    ind_disjunction_26_disjunct_2  c_disjunction_26_disjunct_2  1
    ind_disjunction_26_disjunct_2  R112      1
    ind_disjunction_27_disjunct_2  c_disjunction_27_disjunct_2  2
    ind_disjunction_27_disjunct_2  R115      1
    ind_disjunction_28_disjunct_2  c_disjunction_28_disjunct_2  2
    ind_disjunction_28_disjunct_2  R118      1
    ind_disjunction_29_disjunct_2  c_disjunction_29_disjunct_2  3
    ind_disjunction_29_disjunct_2  R121      1
    ind_disjunction_30_disjunct_2  c_disjunction_30_disjunct_2  2
    ind_disjunction_30_disjunct_2  R124      1
    ind_disjunction_31_disjunct_2  c_disjunction_31_disjunct_2  5
    ind_disjunction_31_disjunct_2  R127      1
    ind_disjunction_32_disjunct_2  c_disjunction_32_disjunct_2  3
    ind_disjunction_32_disjunct_2  R130      1
    ind_disjunction_33_disjunct_2  c_disjunction_33_disjunct_2  3
    ind_disjunction_33_disjunct_2  R133      1
    ind_disjunction_34_disjunct_2  c_disjunction_34_disjunct_2  4
    ind_disjunction_34_disjunct_2  R136      1
    ind_disjunction_35_disjunct_2  c_disjunction_35_disjunct_2  4
    ind_disjunction_35_disjunct_2  R139      1
    x[1,1]    demand_1  1
    x[1,1]    c_disjunction_1_diajunct_1  16
    x[1,1]    c_disjunction_1_disjunct_2  1
    x[31,1]   OBJ       9.2
    x[31,1]   demand_1  1
    x[31,1]   c_disjunction_31_diajunct_1  16
    x[31,1]   c_disjunction_31_disjunct_2  1
    x[22,1]   OBJ       29.3
    x[22,1]   demand_1  1
    x[22,1]   c_disjunction_22_diajunct_1  16
    x[22,1]   c_disjunction_22_disjunct_2  1
    x[2,2]    demand_2  1
    x[2,2]    c_disjunction_2_diajunct_1  31
    x[2,2]    c_disjunction_2_disjunct_2  1
    x[27,2]   OBJ       46.2
    x[27,2]   demand_2  1
    x[27,2]   c_disjunction_27_diajunct_1  31
    x[27,2]   c_disjunction_27_disjunct_2  1
    x[13,2]   OBJ       59.5
    x[13,2]   demand_2  1
    x[13,2]   c_disjunction_13_diajunct_1  31
    x[13,2]   c_disjunction_13_disjunct_2  1
    x[3,3]    demand_3  1
    x[3,3]    c_disjunction_3_diajunct_1  11
    x[3,3]    c_disjunction_3_disjunct_2  1
    x[21,3]   OBJ       10.9
    x[21,3]   demand_3  1
    x[21,3]   c_disjunction_21_diajunct_1  11
    x[21,3]   c_disjunction_21_disjunct_2  1
    x[24,3]   OBJ       24.8
    x[24,3]   demand_3  1
    x[24,3]   c_disjunction_24_diajunct_1  11
    x[24,3]   c_disjunction_24_disjunct_2  1
    x[4,4]    demand_4  1
    x[4,4]    c_disjunction_4_diajunct_1  20
    x[4,4]    c_disjunction_4_disjunct_2  1
    x[10,4]   OBJ       30.1
    x[10,4]   demand_4  1
    x[10,4]   c_disjunction_10_diajunct_1  20
    x[10,4]   c_disjunction_10_disjunct_2  1
    x[17,4]   OBJ       35.3
    x[17,4]   demand_4  1
    x[17,4]   c_disjunction_17_diajunct_1  20
    x[17,4]   c_disjunction_17_disjunct_2  1
    x[5,5]    demand_5  1
    x[5,5]    c_disjunction_5_diajunct_1  34
    x[5,5]    c_disjunction_5_disjunct_2  1
    x[15,5]   OBJ       10.6
    x[15,5]   demand_5  1
    x[15,5]   c_disjunction_15_diajunct_1  34
    x[15,5]   c_disjunction_15_disjunct_2  1
    x[29,5]   OBJ       27.4
    x[29,5]   demand_5  1
    x[29,5]   c_disjunction_29_diajunct_1  34
    x[29,5]   c_disjunction_29_disjunct_2  1
    x[6,6]    demand_6  1
    x[6,6]    c_disjunction_6_diajunct_1  26
    x[6,6]    c_disjunction_6_disjunct_2  1
    x[8,6]    OBJ       5.2
    x[8,6]    demand_6  1
    x[8,6]    c_disjunction_8_diajunct_1  26
    x[8,6]    c_disjunction_8_disjunct_2  1
    x[31,6]   OBJ       43
    x[31,6]   demand_6  1
    x[31,6]   c_disjunction_31_diajunct_1  26
    x[31,6]   c_disjunction_31_disjunct_2  1
    x[7,7]    demand_7  1
    x[7,7]    c_disjunction_7_diajunct_1  22
    x[7,7]    c_disjunction_7_disjunct_2  1
    x[14,7]   OBJ       24.3
    x[14,7]   demand_7  1
    x[14,7]   c_disjunction_14_diajunct_1  22
    x[14,7]   c_disjunction_14_disjunct_2  1
    x[25,7]   OBJ       32.1
    x[25,7]   demand_7  1
    x[25,7]   c_disjunction_25_diajunct_1  22
    x[25,7]   c_disjunction_25_disjunct_2  1
    x[8,8]    demand_8  1
    x[8,8]    c_disjunction_8_diajunct_1  7
    x[8,8]    c_disjunction_8_disjunct_2  1
    x[6,8]    OBJ       1.4
    x[6,8]    demand_8  1
    x[6,8]    c_disjunction_6_diajunct_1  7
    x[6,8]    c_disjunction_6_disjunct_2  1
    x[31,8]   OBJ       11
    x[31,8]   demand_8  1
    x[31,8]   c_disjunction_31_diajunct_1  7
    x[31,8]   c_disjunction_31_disjunct_2  1
    x[9,9]    demand_9  1
    x[9,9]    c_disjunction_9_diajunct_1  26
    x[9,9]    c_disjunction_9_disjunct_2  1
    x[19,9]   OBJ       30.1
    x[19,9]   demand_9  1
    x[19,9]   c_disjunction_19_diajunct_1  26
    x[19,9]   c_disjunction_19_disjunct_2  1
    x[34,9]   OBJ       31.1
    x[34,9]   demand_9  1
    x[34,9]   c_disjunction_34_diajunct_1  26
    x[34,9]   c_disjunction_34_disjunct_2  1
    x[10,10]  demand_10  1
    x[10,10]  c_disjunction_10_diajunct_1  33
    x[10,10]  c_disjunction_10_disjunct_2  1
    x[17,10]  OBJ       8.9
    x[17,10]  demand_10  1
    x[17,10]  c_disjunction_17_diajunct_1  33
    x[17,10]  c_disjunction_17_disjunct_2  1
    x[12,10]  OBJ       35.7
    x[12,10]  demand_10  1
    x[12,10]  c_disjunction_12_diajunct_1  33
    x[12,10]  c_disjunction_12_disjunct_2  1
    x[11,11]  demand_11  1
    x[11,11]  c_disjunction_11_diajunct_1  32
    x[11,11]  c_disjunction_11_disjunct_2  1
    x[23,11]  OBJ       18.5
    x[23,11]  demand_11  1
    x[23,11]  c_disjunction_23_diajunct_1  32
    x[23,11]  c_disjunction_23_disjunct_2  1
    x[35,11]  OBJ       27.7
    x[35,11]  demand_11  1
    x[35,11]  c_disjunction_35_diajunct_1  32
    x[35,11]  c_disjunction_35_disjunct_2  1
    x[12,12]  demand_12  1
    x[12,12]  c_disjunction_12_diajunct_1  15
    x[12,12]  c_disjunction_12_disjunct_2  1
    x[17,12]  OBJ       13.7
    x[17,12]  demand_12  1
    x[17,12]  c_disjunction_17_diajunct_1  15
    x[17,12]  c_disjunction_17_disjunct_2  1
    x[33,12]  OBJ       15.7
    x[33,12]  demand_12  1
    x[33,12]  c_disjunction_33_diajunct_1  15
    x[33,12]  c_disjunction_33_disjunct_2  1
    x[13,13]  demand_13  1
    x[13,13]  c_disjunction_13_diajunct_1  34
    x[13,13]  c_disjunction_13_disjunct_2  1
    x[20,13]  OBJ       59.4
    x[20,13]  demand_13  1
    x[20,13]  c_disjunction_20_diajunct_1  34
    x[20,13]  c_disjunction_20_disjunct_2  1
    x[2,13]   OBJ       65.3
    x[2,13]   demand_13  1
    x[2,13]   c_disjunction_2_diajunct_1  34
    x[2,13]   c_disjunction_2_disjunct_2  1
    x[14,14]  demand_14  1
    x[14,14]  c_disjunction_14_diajunct_1  29
    x[14,14]  c_disjunction_14_disjunct_2  1
    x[15,14]  OBJ       17.5
    x[15,14]  demand_14  1
    x[15,14]  c_disjunction_15_diajunct_1  29
    x[15,14]  c_disjunction_15_disjunct_2  1
    x[5,14]   OBJ       26.1
    x[5,14]   demand_14  1
    x[5,14]   c_disjunction_5_diajunct_1  29
    x[5,14]   c_disjunction_5_disjunct_2  1
    x[15,15]  demand_15  1
    x[15,15]  c_disjunction_15_diajunct_1  17
    x[15,15]  c_disjunction_15_disjunct_2  1
    x[5,15]   OBJ       5.3
    x[5,15]   demand_15  1
    x[5,15]   c_disjunction_5_diajunct_1  17
    x[5,15]   c_disjunction_5_disjunct_2  1
    x[14,15]  OBJ       10.2
    x[14,15]  demand_15  1
    x[14,15]  c_disjunction_14_diajunct_1  17
    x[14,15]  c_disjunction_14_disjunct_2  1
    x[16,16]  demand_16  1
    x[16,16]  c_disjunction_16_diajunct_1  17
    x[16,16]  c_disjunction_16_disjunct_2  1
    x[32,16]  OBJ       20.6
    x[32,16]  demand_16  1
    x[32,16]  c_disjunction_32_diajunct_1  17
    x[32,16]  c_disjunction_32_disjunct_2  1
    x[18,16]  OBJ       25
    x[18,16]  demand_16  1
    x[18,16]  c_disjunction_18_diajunct_1  17
    x[18,16]  c_disjunction_18_disjunct_2  1
    x[17,17]  demand_17  1
    x[17,17]  c_disjunction_17_diajunct_1  22
    x[17,17]  c_disjunction_17_disjunct_2  1
    x[10,17]  OBJ       5.9
    x[10,17]  demand_17  1
    x[10,17]  c_disjunction_10_diajunct_1  22
    x[10,17]  c_disjunction_10_disjunct_2  1
    x[12,17]  OBJ       20.1
    x[12,17]  demand_17  1
    x[12,17]  c_disjunction_12_diajunct_1  22
    x[12,17]  c_disjunction_12_disjunct_2  1
    x[18,18]  demand_18  1
    x[18,18]  c_disjunction_18_diajunct_1  18
    x[18,18]  c_disjunction_18_disjunct_2  1
    x[32,18]  OBJ       11
    x[32,18]  demand_18  1
    x[32,18]  c_disjunction_32_diajunct_1  18
    x[32,18]  c_disjunction_32_disjunct_2  1
    x[16,18]  OBJ       26.5
    x[16,18]  demand_18  1
    x[16,18]  c_disjunction_16_diajunct_1  18
    x[16,18]  c_disjunction_16_disjunct_2  1
    x[19,19]  demand_19  1
    x[19,19]  c_disjunction_19_diajunct_1  8
    x[19,19]  c_disjunction_19_disjunct_2  1
    x[34,19]  OBJ       4.1
    x[34,19]  demand_19  1
    x[34,19]  c_disjunction_34_diajunct_1  8
    x[34,19]  c_disjunction_34_disjunct_2  1
    x[9,19]   OBJ       9.3
    x[9,19]   demand_19  1
    x[9,19]   c_disjunction_9_diajunct_1  8
    x[9,19]   c_disjunction_9_disjunct_2  1
    x[20,20]  demand_20  1
    x[20,20]  c_disjunction_20_diajunct_1  9
    x[20,20]  c_disjunction_20_disjunct_2  1
    x[13,20]  OBJ       15.7
    x[13,20]  demand_20  1
    x[13,20]  c_disjunction_13_diajunct_1  9
    x[13,20]  c_disjunction_13_disjunct_2  1
    x[11,20]  OBJ       18.1
    x[11,20]  demand_20  1
    x[11,20]  c_disjunction_11_diajunct_1  9
    x[11,20]  c_disjunction_11_disjunct_2  1
    x[21,21]  demand_21  1
    x[21,21]  c_disjunction_21_diajunct_1  21
    x[21,21]  c_disjunction_21_disjunct_2  1
    x[3,21]   OBJ       20.9
    x[3,21]   demand_21  1
    x[3,21]   c_disjunction_3_diajunct_1  21
    x[3,21]   c_disjunction_3_disjunct_2  1
    x[20,21]  OBJ       55.4
    x[20,21]  demand_21  1
    x[20,21]  c_disjunction_20_diajunct_1  21
    x[20,21]  c_disjunction_20_disjunct_2  1
    x[22,22]  demand_22  1
    x[22,22]  c_disjunction_22_diajunct_1  24
    x[22,22]  c_disjunction_22_disjunct_2  1
    x[25,22]  OBJ       32.9
    x[25,22]  demand_22  1
    x[25,22]  c_disjunction_25_diajunct_1  24
    x[25,22]  c_disjunction_25_disjunct_2  1
    x[31,22]  OBJ       41.1
    x[31,22]  demand_22  1
    x[31,22]  c_disjunction_31_diajunct_1  24
    x[31,22]  c_disjunction_31_disjunct_2  1
    x[23,23]  demand_23  1
    x[23,23]  c_disjunction_23_diajunct_1  23
    x[23,23]  c_disjunction_23_disjunct_2  1
    x[11,23]  OBJ       13.3
    x[11,23]  demand_23  1
    x[11,23]  c_disjunction_11_diajunct_1  23
    x[11,23]  c_disjunction_11_disjunct_2  1
    x[35,23]  OBJ       29.1
    x[35,23]  demand_23  1
    x[35,23]  c_disjunction_35_diajunct_1  23
    x[35,23]  c_disjunction_35_disjunct_2  1
    x[24,24]  demand_24  1
    x[24,24]  c_disjunction_24_diajunct_1  30
    x[24,24]  c_disjunction_24_disjunct_2  1
    x[33,24]  OBJ       11.1
    x[33,24]  demand_24  1
    x[33,24]  c_disjunction_33_diajunct_1  30
    x[33,24]  c_disjunction_33_disjunct_2  1
    x[12,24]  OBJ       35.9
    x[12,24]  demand_24  1
    x[12,24]  c_disjunction_12_diajunct_1  30
    x[12,24]  c_disjunction_12_disjunct_2  1
    x[25,25]  demand_25  1
    x[25,25]  c_disjunction_25_diajunct_1  5
    x[25,25]  c_disjunction_25_disjunct_2  1
    x[14,25]  OBJ       5
    x[14,25]  demand_25  1
    x[14,25]  c_disjunction_14_diajunct_1  5
    x[14,25]  c_disjunction_14_disjunct_2  1
    x[22,25]  OBJ       6.8
    x[22,25]  demand_25  1
    x[22,25]  c_disjunction_22_diajunct_1  5
    x[22,25]  c_disjunction_22_disjunct_2  1
    x[26,26]  demand_26  1
    x[26,26]  c_disjunction_26_diajunct_1  17
    x[26,26]  c_disjunction_26_disjunct_2  1
    x[23,26]  OBJ       23.3
    x[23,26]  demand_26  1
    x[23,26]  c_disjunction_23_diajunct_1  17
    x[23,26]  c_disjunction_23_disjunct_2  1
    x[29,26]  OBJ       26.3
    x[29,26]  demand_26  1
    x[29,26]  c_disjunction_29_diajunct_1  17
    x[29,26]  c_disjunction_29_disjunct_2  1
    x[27,27]  demand_27  1
    x[27,27]  c_disjunction_27_diajunct_1  35
    x[27,27]  c_disjunction_27_disjunct_2  1
    x[2,27]   OBJ       52.2
    x[2,27]   demand_27  1
    x[2,27]   c_disjunction_2_diajunct_1  35
    x[2,27]   c_disjunction_2_disjunct_2  1
    x[13,27]  OBJ       118.3
    x[13,27]  demand_27  1
    x[13,27]  c_disjunction_13_diajunct_1  35
    x[13,27]  c_disjunction_13_disjunct_2  1
    x[28,28]  demand_28  1
    x[28,28]  c_disjunction_28_diajunct_1  6
    x[28,28]  c_disjunction_28_disjunct_2  1
    x[34,28]  OBJ       5.2
    x[34,28]  demand_28  1
    x[34,28]  c_disjunction_34_diajunct_1  6
    x[34,28]  c_disjunction_34_disjunct_2  1
    x[19,28]  OBJ       8.2
    x[19,28]  demand_28  1
    x[19,28]  c_disjunction_19_diajunct_1  6
    x[19,28]  c_disjunction_19_disjunct_2  1
    x[29,29]  demand_29  1
    x[29,29]  c_disjunction_29_diajunct_1  16
    x[29,29]  c_disjunction_29_disjunct_2  1
    x[5,29]   OBJ       12.9
    x[5,29]   demand_29  1
    x[5,29]   c_disjunction_5_diajunct_1  16
    x[5,29]   c_disjunction_5_disjunct_2  1
    x[15,29]  OBJ       14.4
    x[15,29]  demand_29  1
    x[15,29]  c_disjunction_15_diajunct_1  16
    x[15,29]  c_disjunction_15_disjunct_2  1
    x[30,30]  demand_30  1
    x[30,30]  c_disjunction_30_diajunct_1  29
    x[30,30]  c_disjunction_30_disjunct_2  1
    x[35,30]  OBJ       23.9
    x[35,30]  demand_30  1
    x[35,30]  c_disjunction_35_diajunct_1  29
    x[35,30]  c_disjunction_35_disjunct_2  1
    x[11,30]  OBJ       38.3
    x[11,30]  demand_30  1
    x[11,30]  c_disjunction_11_diajunct_1  29
    x[11,30]  c_disjunction_11_disjunct_2  1
    x[31,31]  demand_31  1
    x[31,31]  c_disjunction_31_diajunct_1  31
    x[31,31]  c_disjunction_31_disjunct_2  1
    x[1,31]   OBJ       17.8
    x[1,31]   demand_31  1
    x[1,31]   c_disjunction_1_diajunct_1  31
    x[1,31]   c_disjunction_1_disjunct_2  1
    x[8,31]   OBJ       48.6
    x[8,31]   demand_31  1
    x[8,31]   c_disjunction_8_diajunct_1  31
    x[8,31]   c_disjunction_8_disjunct_2  1
    x[32,32]  demand_32  1
    x[32,32]  c_disjunction_32_diajunct_1  5
    x[32,32]  c_disjunction_32_disjunct_2  1
    x[18,32]  OBJ       3.1
    x[18,32]  demand_32  1
    x[18,32]  c_disjunction_18_diajunct_1  5
    x[18,32]  c_disjunction_18_disjunct_2  1
    x[16,32]  OBJ       6.1
    x[16,32]  demand_32  1
    x[16,32]  c_disjunction_16_diajunct_1  5
    x[16,32]  c_disjunction_16_disjunct_2  1
    x[33,33]  demand_33  1
    x[33,33]  c_disjunction_33_diajunct_1  33
    x[33,33]  c_disjunction_33_disjunct_2  1
    x[24,33]  OBJ       12.2
    x[24,33]  demand_33  1
    x[24,33]  c_disjunction_24_diajunct_1  33
    x[24,33]  c_disjunction_24_disjunct_2  1
    x[12,33]  OBJ       34.4
    x[12,33]  demand_33  1
    x[12,33]  c_disjunction_12_diajunct_1  33
    x[12,33]  c_disjunction_12_disjunct_2  1
    x[34,34]  demand_34  1
    x[34,34]  c_disjunction_34_diajunct_1  18
    x[34,34]  c_disjunction_34_disjunct_2  1
    x[19,34]  OBJ       9.2
    x[19,34]  demand_34  1
    x[19,34]  c_disjunction_19_diajunct_1  18
    x[19,34]  c_disjunction_19_disjunct_2  1
    x[28,34]  OBJ       15.7
    x[28,34]  demand_34  1
    x[28,34]  c_disjunction_28_diajunct_1  18
    x[28,34]  c_disjunction_28_disjunct_2  1
    x[35,35]  demand_35  1
    x[35,35]  c_disjunction_35_diajunct_1  16
    x[35,35]  c_disjunction_35_disjunct_2  1
    x[30,35]  OBJ       13.2
    x[30,35]  demand_35  1
    x[30,35]  c_disjunction_30_diajunct_1  16
    x[30,35]  c_disjunction_30_disjunct_2  1
    x[11,35]  OBJ       13.8
    x[11,35]  demand_35  1
    x[11,35]  c_disjunction_11_diajunct_1  16
    x[11,35]  c_disjunction_11_disjunct_2  1
    MARKER    'MARKER'                 'INTEND'
RHS
    RHS1      demand_1  1
    RHS1      demand_2  1
    RHS1      demand_3  1
    RHS1      demand_4  1
    RHS1      demand_5  1
    RHS1      demand_6  1
    RHS1      demand_7  1
    RHS1      demand_8  1
    RHS1      demand_9  1
    RHS1      demand_10  1
    RHS1      demand_11  1
    RHS1      demand_12  1
    RHS1      demand_13  1
    RHS1      demand_14  1
    RHS1      demand_15  1
    RHS1      demand_16  1
    RHS1      demand_17  1
    RHS1      demand_18  1
    RHS1      demand_19  1
    RHS1      demand_20  1
    RHS1      demand_21  1
    RHS1      demand_22  1
    RHS1      demand_23  1
    RHS1      demand_24  1
    RHS1      demand_25  1
    RHS1      demand_26  1
    RHS1      demand_27  1
    RHS1      demand_28  1
    RHS1      demand_29  1
    RHS1      demand_30  1
    RHS1      demand_31  1
    RHS1      demand_32  1
    RHS1      demand_33  1
    RHS1      demand_34  1
    RHS1      demand_35  1
    RHS1      c_disjunction_1_disjunct_2  2
    RHS1      R37       1
    RHS1      c_disjunction_2_disjunct_2  3
    RHS1      R40       1
    RHS1      c_disjunction_3_disjunct_2  2
    RHS1      R43       1
    RHS1      c_disjunction_4_disjunct_2  1
    RHS1      R46       1
    RHS1      c_disjunction_5_disjunct_2  4
    RHS1      R49       1
    RHS1      c_disjunction_6_disjunct_2  2
    RHS1      R52       1
    RHS1      c_disjunction_7_disjunct_2  1
    RHS1      R55       1
    RHS1      c_disjunction_8_disjunct_2  3
    RHS1      R58       1
    RHS1      c_disjunction_9_disjunct_2  2
    RHS1      R61       1
    RHS1      c_disjunction_10_disjunct_2  3
    RHS1      R64       1
    RHS1      c_disjunction_11_disjunct_2  5
    RHS1      R67       1
    RHS1      c_disjunction_12_disjunct_2  5
    RHS1      R70       1
    RHS1      c_disjunction_13_disjunct_2  4
    RHS1      R73       1
    RHS1      c_disjunction_14_disjunct_2  4
    RHS1      R76       1
    RHS1      c_disjunction_15_disjunct_2  4
    RHS1      R79       1
    RHS1      c_disjunction_16_disjunct_2  3
    RHS1      R82       1
    RHS1      c_disjunction_17_disjunct_2  4
    RHS1      R85       1
    RHS1      c_disjunction_18_disjunct_2  3
    RHS1      R88       1
    RHS1      c_disjunction_19_disjunct_2  4
    RHS1      R91       1
    RHS1      c_disjunction_20_disjunct_2  3
    RHS1      R94       1
    RHS1      c_disjunction_21_disjunct_2  2
    RHS1      R97       1
    RHS1      c_disjunction_22_disjunct_2  3
    RHS1      R100      1
    RHS1      c_disjunction_23_disjunct_2  3
    RHS1      R103      1
    RHS1      c_disjunction_24_disjunct_2  3
    RHS1      R106      1
    RHS1      c_disjunction_25_disjunct_2  3
    RHS1      R109      1
    RHS1      c_disjunction_26_disjunct_2  1
    RHS1      R112      1
    RHS1      c_disjunction_27_disjunct_2  2
    RHS1      R115      1
    RHS1      c_disjunction_28_disjunct_2  2
    RHS1      R118      1
    RHS1      c_disjunction_29_disjunct_2  3
    RHS1      R121      1
    RHS1      c_disjunction_30_disjunct_2  2
    RHS1      R124      1
    RHS1      c_disjunction_31_disjunct_2  5
    RHS1      R127      1
    RHS1      c_disjunction_32_disjunct_2  3
    RHS1      R130      1
    RHS1      c_disjunction_33_disjunct_2  3
    RHS1      R133      1
    RHS1      c_disjunction_34_disjunct_2  4
    RHS1      R136      1
    RHS1      c_disjunction_35_disjunct_2  4
    RHS1      R139      1
BOUNDS
 BV BND1      ind_disjunction_1_disjunct_1
 BV BND1      ind_disjunction_2_disjunct_1
 BV BND1      ind_disjunction_3_disjunct_1
 BV BND1      ind_disjunction_4_disjunct_1
 BV BND1      ind_disjunction_5_disjunct_1
 BV BND1      ind_disjunction_6_disjunct_1
 BV BND1      ind_disjunction_7_disjunct_1
 BV BND1      ind_disjunction_8_disjunct_1
 BV BND1      ind_disjunction_9_disjunct_1
 BV BND1      ind_disjunction_10_disjunct_1
 BV BND1      ind_disjunction_11_disjunct_1
 BV BND1      ind_disjunction_12_disjunct_1
 BV BND1      ind_disjunction_13_disjunct_1
 BV BND1      ind_disjunction_14_disjunct_1
 BV BND1      ind_disjunction_15_disjunct_1
 BV BND1      ind_disjunction_16_disjunct_1
 BV BND1      ind_disjunction_17_disjunct_1
 BV BND1      ind_disjunction_18_disjunct_1
 BV BND1      ind_disjunction_19_disjunct_1
 BV BND1      ind_disjunction_20_disjunct_1
 BV BND1      ind_disjunction_21_disjunct_1
 BV BND1      ind_disjunction_22_disjunct_1
 BV BND1      ind_disjunction_23_disjunct_1
 BV BND1      ind_disjunction_24_disjunct_1
 BV BND1      ind_disjunction_25_disjunct_1
 BV BND1      ind_disjunction_26_disjunct_1
 BV BND1      ind_disjunction_27_disjunct_1
 BV BND1      ind_disjunction_28_disjunct_1
 BV BND1      ind_disjunction_29_disjunct_1
 BV BND1      ind_disjunction_30_disjunct_1
 BV BND1      ind_disjunction_31_disjunct_1
 BV BND1      ind_disjunction_32_disjunct_1
 BV BND1      ind_disjunction_33_disjunct_1
 BV BND1      ind_disjunction_34_disjunct_1
 BV BND1      ind_disjunction_35_disjunct_1
 BV BND1      ind_disjunction_1_disjunct_2
 BV BND1      ind_disjunction_2_disjunct_2
 BV BND1      ind_disjunction_3_disjunct_2
 BV BND1      ind_disjunction_4_disjunct_2
 BV BND1      ind_disjunction_5_disjunct_2
 BV BND1      ind_disjunction_6_disjunct_2
 BV BND1      ind_disjunction_7_disjunct_2
 BV BND1      ind_disjunction_8_disjunct_2
 BV BND1      ind_disjunction_9_disjunct_2
 BV BND1      ind_disjunction_10_disjunct_2
 BV BND1      ind_disjunction_11_disjunct_2
 BV BND1      ind_disjunction_12_disjunct_2
 BV BND1      ind_disjunction_13_disjunct_2
 BV BND1      ind_disjunction_14_disjunct_2
 BV BND1      ind_disjunction_15_disjunct_2
 BV BND1      ind_disjunction_16_disjunct_2
 BV BND1      ind_disjunction_17_disjunct_2
 BV BND1      ind_disjunction_18_disjunct_2
 BV BND1      ind_disjunction_19_disjunct_2
 BV BND1      ind_disjunction_20_disjunct_2
 BV BND1      ind_disjunction_21_disjunct_2
 BV BND1      ind_disjunction_22_disjunct_2
 BV BND1      ind_disjunction_23_disjunct_2
 BV BND1      ind_disjunction_24_disjunct_2
 BV BND1      ind_disjunction_25_disjunct_2
 BV BND1      ind_disjunction_26_disjunct_2
 BV BND1      ind_disjunction_27_disjunct_2
 BV BND1      ind_disjunction_28_disjunct_2
 BV BND1      ind_disjunction_29_disjunct_2
 BV BND1      ind_disjunction_30_disjunct_2
 BV BND1      ind_disjunction_31_disjunct_2
 BV BND1      ind_disjunction_32_disjunct_2
 BV BND1      ind_disjunction_33_disjunct_2
 BV BND1      ind_disjunction_34_disjunct_2
 BV BND1      ind_disjunction_35_disjunct_2
 BV BND1      x[1,1]  
 BV BND1      x[31,1] 
 BV BND1      x[22,1] 
 BV BND1      x[2,2]  
 BV BND1      x[27,2] 
 BV BND1      x[13,2] 
 BV BND1      x[3,3]  
 BV BND1      x[21,3] 
 BV BND1      x[24,3] 
 BV BND1      x[4,4]  
 BV BND1      x[10,4] 
 BV BND1      x[17,4] 
 BV BND1      x[5,5]  
 BV BND1      x[15,5] 
 BV BND1      x[29,5] 
 BV BND1      x[6,6]  
 BV BND1      x[8,6]  
 BV BND1      x[31,6] 
 BV BND1      x[7,7]  
 BV BND1      x[14,7] 
 BV BND1      x[25,7] 
 BV BND1      x[8,8]  
 BV BND1      x[6,8]  
 BV BND1      x[31,8] 
 BV BND1      x[9,9]  
 BV BND1      x[19,9] 
 BV BND1      x[34,9] 
 BV BND1      x[10,10]
 BV BND1      x[17,10]
 BV BND1      x[12,10]
 BV BND1      x[11,11]
 BV BND1      x[23,11]
 BV BND1      x[35,11]
 BV BND1      x[12,12]
 BV BND1      x[17,12]
 BV BND1      x[33,12]
 BV BND1      x[13,13]
 BV BND1      x[20,13]
 BV BND1      x[2,13] 
 BV BND1      x[14,14]
 BV BND1      x[15,14]
 BV BND1      x[5,14] 
 BV BND1      x[15,15]
 BV BND1      x[5,15] 
 BV BND1      x[14,15]
 BV BND1      x[16,16]
 BV BND1      x[32,16]
 BV BND1      x[18,16]
 BV BND1      x[17,17]
 BV BND1      x[10,17]
 BV BND1      x[12,17]
 BV BND1      x[18,18]
 BV BND1      x[32,18]
 BV BND1      x[16,18]
 BV BND1      x[19,19]
 BV BND1      x[34,19]
 BV BND1      x[9,19] 
 BV BND1      x[20,20]
 BV BND1      x[13,20]
 BV BND1      x[11,20]
 BV BND1      x[21,21]
 BV BND1      x[3,21] 
 BV BND1      x[20,21]
 BV BND1      x[22,22]
 BV BND1      x[25,22]
 BV BND1      x[31,22]
 BV BND1      x[23,23]
 BV BND1      x[11,23]
 BV BND1      x[35,23]
 BV BND1      x[24,24]
 BV BND1      x[33,24]
 BV BND1      x[12,24]
 BV BND1      x[25,25]
 BV BND1      x[14,25]
 BV BND1      x[22,25]
 BV BND1      x[26,26]
 BV BND1      x[23,26]
 BV BND1      x[29,26]
 BV BND1      x[27,27]
 BV BND1      x[2,27] 
 BV BND1      x[13,27]
 BV BND1      x[28,28]
 BV BND1      x[34,28]
 BV BND1      x[19,28]
 BV BND1      x[29,29]
 BV BND1      x[5,29] 
 BV BND1      x[15,29]
 BV BND1      x[30,30]
 BV BND1      x[35,30]
 BV BND1      x[11,30]
 BV BND1      x[31,31]
 BV BND1      x[1,31] 
 BV BND1      x[8,31] 
 BV BND1      x[32,32]
 BV BND1      x[18,32]
 BV BND1      x[16,32]
 BV BND1      x[33,33]
 BV BND1      x[24,33]
 BV BND1      x[12,33]
 BV BND1      x[34,34]
 BV BND1      x[19,34]
 BV BND1      x[28,34]
 BV BND1      x[35,35]
 BV BND1      x[30,35]
 BV BND1      x[11,35]
ENDATA
